
(set-logic HORN)
(define-fun Z_2122 () Int 0)
(define-fun S_493 ((x Int)) Int (+ x 1))
(declare-datatypes ((Bool_356 0)) (((false_356) (true_356))))
(declare-fun diseqBool_162 (Bool_356 Bool_356) Bool)
(declare-fun isfalse_162 (Bool_356) Bool)
(declare-fun istrue_162 (Bool_356) Bool)
(assert (isfalse_162 false_356))
(assert (istrue_162 true_356))
(assert (diseqBool_162 false_356 true_356))
(assert (diseqBool_162 true_356 false_356))
(declare-fun and_356 (Bool_356 Bool_356 Bool_356) Bool)
(declare-fun or_363 (Bool_356 Bool_356 Bool_356) Bool)
(declare-fun hence_356 (Bool_356 Bool_356 Bool_356) Bool)
(declare-fun not_361 (Bool_356 Bool_356) Bool)
(assert (and_356 false_356 false_356 false_356))
(assert (and_356 false_356 true_356 false_356))
(assert (and_356 false_356 false_356 true_356))
(assert (and_356 true_356 true_356 true_356))
(assert (or_363 false_356 false_356 false_356))
(assert (or_363 true_356 true_356 false_356))
(assert (or_363 true_356 false_356 true_356))
(assert (or_363 true_356 true_356 true_356))
(assert (hence_356 true_356 false_356 false_356))
(assert (hence_356 false_356 true_356 false_356))
(assert (hence_356 true_356 false_356 true_356))
(assert (hence_356 true_356 true_356 true_356))
(assert (not_361 true_356 false_356))
(assert (not_361 false_356 true_356))
(declare-fun diseqInt (Int Int) Bool)
(declare-fun projS_209 (Int Int) Bool)
(declare-fun isZ_460 (Int) Bool)
(declare-fun isS_460 (Int) Bool)
(assert (forall ((x_56065 Int))
	(projS_209 x_56065 (S_493 x_56065))))
(assert (isZ_460 Z_2122))
(assert (forall ((x_56067 Int))
	(isS_460 (S_493 x_56067))))
(assert (forall ((x_56068 Int))
	(diseqInt Z_2122 (S_493 x_56068))))
(assert (forall ((x_56069 Int))
	(diseqInt (S_493 x_56069) Z_2122)))
(assert (forall ((x_56070 Int) (x_56071 Int))
	(=> (diseqInt x_56070 x_56071) (diseqInt (S_493 x_56070) (S_493 x_56071)))))
(declare-datatypes ((list_256 0)) (((nil_286) (cons_256 (head_512 Int) (tail_512 list_256)))))
(declare-fun diseqlist_256 (list_256 list_256) Bool)
(declare-fun head_513 (Int list_256) Bool)
(declare-fun tail_513 (list_256 list_256) Bool)
(declare-fun isnil_286 (list_256) Bool)
(declare-fun iscons_256 (list_256) Bool)
(assert (forall ((x_56073 Int) (x_56074 list_256))
	(head_513 x_56073 (cons_256 x_56073 x_56074))))
(assert (forall ((x_56073 Int) (x_56074 list_256))
	(tail_513 x_56074 (cons_256 x_56073 x_56074))))
(assert (isnil_286 nil_286))
(assert (forall ((x_56076 Int) (x_56077 list_256))
	(iscons_256 (cons_256 x_56076 x_56077))))
(assert (forall ((x_56078 Int) (x_56079 list_256))
	(diseqlist_256 nil_286 (cons_256 x_56078 x_56079))))
(assert (forall ((x_56080 Int) (x_56081 list_256))
	(diseqlist_256 (cons_256 x_56080 x_56081) nil_286)))
(assert (forall ((x_56082 Int) (x_56083 list_256) (x_56084 Int) (x_56085 list_256))
	(=> (diseqInt x_56082 x_56084) (diseqlist_256 (cons_256 x_56082 x_56083) (cons_256 x_56084 x_56085)))))
(assert (forall ((x_56082 Int) (x_56083 list_256) (x_56084 Int) (x_56085 list_256))
	(=> (diseqlist_256 x_56083 x_56085) (diseqlist_256 (cons_256 x_56082 x_56083) (cons_256 x_56084 x_56085)))))
(declare-fun drop_55 (list_256 Int list_256) Bool)
(assert (forall ((x_56042 list_256) (x_56034 Int) (x_56035 list_256) (z_2123 Int))
	(=> (drop_55 x_56042 z_2123 x_56035) (drop_55 x_56042 (S_493 z_2123) (cons_256 x_56034 x_56035)))))
(assert (forall ((z_2123 Int))
	(drop_55 nil_286 (S_493 z_2123) nil_286)))
(assert (forall ((x_56045 list_256))
	(drop_55 x_56045 Z_2122 x_56045)))
(declare-fun barbar_10 (Bool_356 Bool_356 Bool_356) Bool)
(assert (forall ((y_2360 Bool_356))
	(barbar_10 true_356 true_356 y_2360)))
(assert (forall ((x_56047 Bool_356))
	(barbar_10 x_56047 false_356 x_56047)))
(declare-fun x_56037 (Bool_356 Int Int) Bool)
(assert (forall ((x_56048 Bool_356) (y_2362 Int) (x_56039 Int))
	(=> (x_56037 x_56048 x_56039 y_2362) (x_56037 x_56048 (S_493 x_56039) (S_493 y_2362)))))
(assert (forall ((x_56039 Int))
	(x_56037 false_356 (S_493 x_56039) Z_2122)))
(assert (forall ((z_2124 Int))
	(x_56037 false_356 Z_2122 (S_493 z_2124))))
(assert (x_56037 true_356 Z_2122 Z_2122))
(declare-fun elem_22 (Bool_356 Int list_256) Bool)
(assert (forall ((x_56053 Bool_356) (x_56054 Bool_356) (x_56055 Bool_356) (z_2125 Int) (xs_684 list_256) (x_56040 Int))
	(=> (and (x_56037 x_56054 x_56040 z_2125) (elem_22 x_56055 x_56040 xs_684) (barbar_10 x_56053 x_56054 x_56055)) (elem_22 x_56053 x_56040 (cons_256 z_2125 xs_684)))))
(assert (forall ((x_56040 Int))
	(elem_22 false_356 x_56040 nil_286)))
(assert (forall ((x_56059 list_256) (x_56041 Int) (y_2364 Int) (z_2126 list_256))
	(=> (and true (drop_55 x_56059 y_2364 z_2126) (elem_22 true_356 x_56041 x_56059) (elem_22 false_356 x_56041 z_2126)) false)))
(check-sat)
